17	4	3
20	23	18	20	26	4	30	
0	0	0	0	0	1	1	5	4	10	5	3	2	3	4
7	9	3	0	6	3	5	3	7	7	9	3	6	7	13
4	3	5	6	1	2	1	5	7	10	6	2	15	17
10	10	0	0	0	9	6	3	10	1	1	2	5	10
2	1	3	0	2	10	9	1	10	10	10	1	17
250	4	7	3	9	4	1	1	9	4	10	2	9	17
100	10	7	1	0	3	6	5	5	3	1	3	8	12	17
125	5	8	0	3	3	4	2	7	1	2	2	17	17
100	7	8	2	0	2	9	7	5	8	8	2	14	17
250	6	2	2	7	6	7	7	6	7	6	2	11	17
75	5	0	4	2	6	1	7	7	9	1	2	17	17
175	7	8	1	0	7	1	7	1	6	9	1	17
9	4	7	3	6	2	8	3	4	5	4	2	16	17
5	8	6	3	3	5	7	2	2	2	10	1	17
3	0	7	0	7	9	7	7	5	3	4	2	17	17
2	5	0	3	10	1	8	5	8	5	3	1	17
0	0	0	0	0	8	1	4	4	2	10	0
